Running HiGHS 1.7.2 (git hash: 5ce7a2753): Copyright (c) 2024 HiGHS under MIT licence terms
Coefficient ranges:
  Matrix [1e+00, 1e+00]
  Cost   [1e+00, 1e+00]
  Bound  [1e+00, 1e+00]
  RHS    [1e+00, 1e+00]
Presolving model
13301 rows, 744 cols, 27262 nonzeros  0s
7037 rows, 744 cols, 14734 nonzeros  0s
2034 rows, 742 cols, 10554 nonzeros  0s
1972 rows, 742 cols, 10493 nonzeros  0s
Objective function is integral with scale 1

Solving MIP model with:
   1972 rows
   742 cols (742 binary, 0 integer, 0 implied int., 0 continuous)
   10493 nonzeros

        Nodes      |    B&B Tree     |            Objective Bounds              |  Dynamic Constraints |       Work      
     Proc. InQueue |  Leaves   Expl. | BestBound       BestSol              Gap |   Cuts   InLp Confl. | LpIters     Time

         0       0         0   0.00%   2               inf                  inf        0      0      0         0     0.1s
         0       0         0   0.00%   5.368544677     inf                  inf        0      0      6      3157     0.4s
 C       0       0         0   0.00%   5.467845629     9                 39.25%        5      5     74      4104     1.2s

10.2% inactive integer columns, restarting
Model after restart has 1893 rows, 666 cols (666 bin., 0 int., 0 impl., 0 cont.), and 9422 nonzeros

         0       0         0   0.00%   5.71809871      9                 36.47%       17      0      0     21807     5.1s
         0       0         0   0.00%   5.71809871      9                 36.47%       17     17      6     22511     5.2s

63.1% inactive integer columns, restarting
Model after restart has 630 rows, 246 cols (246 bin., 0 int., 0 impl., 0 cont.), and 3319 nonzeros

         0       0         0   0.00%   6.15000619      9                 31.67%        5      0      0     23072     5.3s
         0       0         0   0.00%   6.15000619      9                 31.67%        5      5     12     23761     5.3s
      1205      21       583  33.16%   8               9                 11.11%     9960     23   3916     93256    10.3s
      2478      40      1201  35.75%   8               9                 11.11%     9687     42   8482    166639    15.3s

Restarting search from the root node
Model after restart has 445 rows, 240 cols (240 bin., 0 int., 0 impl., 0 cont.), and 2644 nonzeros

      2573       0         0   0.00%   8               9                 11.11%       36      0      0    171594    15.7s
      2573       0         0   0.00%   8               9                 11.11%       36     10      3    171838    15.7s
      3731      22       557  32.65%   8               9                 11.11%     9723     36   4374    244651    20.7s
      5255      39      1294  34.78%   8               9                 11.11%     9782     47   9858    324444    25.7s

Restarting search from the root node
Model after restart has 445 rows, 240 cols (240 bin., 0 int., 0 impl., 0 cont.), and 2644 nonzeros

      5947       0         0   0.00%   8               9                 11.11%       50      0      0    362043    28.0s
      5947       0         0   0.00%   8               9                 11.11%       50     17      4    362142    28.0s
      7327      15       669  30.07%   8               9                 11.11%     8856     45   5972    431005    33.0s
      8785      34      1382  31.57%   8               9                 11.11%     9308     47   9410    507783    38.0s
     10130      54      2037  31.61%   8               9                 11.11%     9212     50   9977    589779    43.0s
     11456      65      2691  38.25%   8               9                 11.11%     9367     32   9593    665491    48.0s
     12444      74      3176  42.77%   8               9                 11.11%     9480     52   9676    721587    53.0s

        Nodes      |    B&B Tree     |            Objective Bounds              |  Dynamic Constraints |       Work      
     Proc. InQueue |  Leaves   Expl. | BestBound       BestSol              Gap |   Cuts   InLp Confl. | LpIters     Time

     13594      72      3749  44.66%   8               9                 11.11%     9308     53   9772    799901    58.0s
     14942      82      4411  47.19%   8               9                 11.11%     9550     45   9786    878712    63.0s
     16263      84      5064  52.62%   8               9                 11.11%     9676     51   9966    960167    68.0s
     17454      96      5642  55.71%   8               9                 11.11%     8944     49   9890     1037k    73.0s
     18833      92      6325  57.50%   8               9                 11.11%    10049     53   9856     1116k    78.0s
     20277      88      7042  58.67%   8               9                 11.11%     9660     56   9961     1195k    83.0s
     21409      87      7604  59.31%   8               9                 11.11%     9317     53   9825     1271k    88.1s
     22808      86      8296  60.22%   8               9                 11.11%     9142     35   9999     1351k    93.1s
     23974      92      8874  60.83%   8               9                 11.11%     9467     43   9939     1431k    98.1s
     25350      91      9555  62.46%   8               9                 11.11%     9889     32   9982     1514k   103.3s
     26645      96     10190  62.98%   8               9                 11.11%     8787     38   9781     1595k   108.4s
     27780     100     10746  63.01%   8               9                 11.11%     9933     32   9809     1660k   113.4s
     28849     101     11272  63.31%   8               9                 11.11%     9867     56   9978     1723k   118.4s
     29821      94     11757  69.74%   8               9                 11.11%     9178     43   9933     1793k   123.4s
     31134      99     12403  69.75%   8               9                 11.11%     9818     50   9916     1877k   128.4s
     32463      99     13055  69.83%   8               9                 11.11%     9851     56   9889     1958k   133.4s
     33726      95     13682  69.88%   8               9                 11.11%     9825     47   9976     2039k   138.4s
     34954      93     14289  71.44%   8               9                 11.11%     9417     39   9710     2120k   143.4s
     36190      90     14899  71.46%   8               9                 11.11%     9886     60   9719     2207k   148.5s
     37540      88     15566  71.51%   8               9                 11.11%     9993     47   9937     2290k   153.5s

        Nodes      |    B&B Tree     |            Objective Bounds              |  Dynamic Constraints |       Work      
     Proc. InQueue |  Leaves   Expl. | BestBound       BestSol              Gap |   Cuts   InLp Confl. | LpIters     Time

     38794      90     16188  71.70%   8               9                 11.11%     9976     45   9645     2371k   158.5s
     40120      84     16844  72.06%   8               9                 11.11%     9655     50   9965     2460k   163.9s
     41469      86     17504  72.19%   8               9                 11.11%     9947     41   9930     2542k   169.0s
     42625      88     18075  72.23%   8               9                 11.11%     9201     43   9962     2616k   174.0s
     43784      94     18651  72.25%   8               9                 11.11%     9657     38   9959     2699k   179.0s
     45106      93     19304  72.34%   8               9                 11.11%     9809     33   9901     2781k   184.0s
     46379      84     19940  73.11%   8               9                 11.11%     9729     37   9728     2866k   189.0s
     47343      86     20416  73.66%   8               9                 11.11%     9503     43   9839     2941k   194.0s
     48805      91     21140  81.33%   8               9                 11.11%     9632     52   9653     3020k   199.0s
     50095      84     21783  87.90%   8               9                 11.11%     9899     34   9932     3100k   204.0s
     51519      87     22488  88.28%   8               9                 11.11%     9980     59   9606     3184k   209.0s
     52853      78     23157  91.38%   8               9                 11.11%     9783     50   9979     3269k   214.0s
     54221      71     23841  91.85%   8               9                 11.11%     8864     38   9904     3356k   219.0s
     55517      72     24482  93.44%   8               9                 11.11%     9415     62   9935     3438k   224.0s
     56948      58     25191  93.76%   8               9                 11.11%     9845     51   9792     3518k   229.1s
     58338      48     25887  94.86%   8               9                 11.11%     9876     44   9946     3604k   234.1s
     59381      42     26407  97.72%   8               9                 11.11%     9105     39   9974     3685k   239.1s
     60767      38     27094  99.46%   8               9                 11.11%     9557     44   9784     3767k   244.1s
     62087      36     27752  99.68%   8               9                 11.11%     9772     31   9829     3849k   249.1s
     63148      23     28283  99.81%   8               9                 11.11%     9321     46   9872     3919k   254.1s

        Nodes      |    B&B Tree     |            Objective Bounds              |  Dynamic Constraints |       Work      
     Proc. InQueue |  Leaves   Expl. | BestBound       BestSol              Gap |   Cuts   InLp Confl. | LpIters     Time

     64051      16     28736  99.92%   8               9                 11.11%     9760     49   9986     3986k   259.4s
     65113       8     29266  99.95%   8               9                 11.11%     9023     55   9946     4054k   264.4s

Solving report
  Status            Optimal
  Primal bound      9
  Dual bound        9
  Gap               0% (tolerance: 0.01%)
  Solution status   feasible
                    9 (objective)
                    0 (bound viol.)
                    0 (int. viol.)
                    0 (row viol.)
  Timing            267.66 (total)
                    0.15 (presolve)
                    0.00 (postsolve)
  Nodes             65800
  LP iterations     4098491 (total)
                    24 (strong br.)
                    101638 (separation)
                    206230 (heuristics)
ARGS = ["1", "300", "selected_instances/04.txt"]
instance = (30, 261, [[28, 20, 10, 2, 21, 4, 6, 30, 15, 29, 12, 14, 16, 18, 25], [26, 17, 1, 23, 29, 12, 19, 16, 18, 8, 24, 25, 3, 27, 21, 5, 6], [13, 22, 6, 30, 15, 26, 2, 19, 14, 16, 18, 8, 25, 28, 9, 10, 27, 21, 11], [29, 19, 14, 16, 18, 24, 25, 1, 10, 27, 21, 22, 30, 26, 17], [27, 21, 11, 6, 30, 15, 2, 17, 26, 23, 29, 12, 19, 14, 18, 8, 25], [23, 29, 12, 19, 14, 16, 3, 18, 8, 24, 7, 9, 20, 1, 27, 5, 21, 13, 30, 15, 2, 26], [18, 9, 6, 10, 11, 13, 15, 17, 23, 12, 16], [15, 6, 23, 29, 12, 2, 19, 18, 25, 27, 3, 11, 13, 5, 30], [26, 7, 23, 19, 14, 16, 24, 6, 28, 20, 21, 13, 3, 30, 15], [17, 26, 1, 19, 14, 7, 18, 28, 4, 20, 27, 21, 13, 22, 30, 3], [17, 29, 16, 5, 25, 7, 28, 27, 8, 15, 3, 26], [21, 6, 2, 13, 8, 30, 15, 26, 17, 23, 19, 14, 16, 18, 1, 5, 28, 7, 20], [23, 3, 14, 16, 12, 18, 24, 25, 28, 7, 27, 21, 6, 22, 10, 9, 30, 8, 15, 17], [15, 26, 17, 6, 4, 13, 10, 23, 9, 19, 18, 28, 3, 27, 12, 21, 1, 22, 5, 30], [8, 14, 23, 29, 16, 24, 25, 3, 20, 12, 27, 21, 1, 5, 7, 30, 6, 13, 11, 17, 9], [25, 15, 6, 28, 13, 4, 11, 2, 20, 9, 27, 22, 3, 12, 17, 1, 23, 29, 19, 7], [11, 2, 10, 24, 14, 25, 28, 20, 27, 12, 22, 5, 7, 16, 15, 13, 4, 29], [7, 24, 28, 6, 4, 13, 20, 2, 10, 27, 21, 8, 14, 3, 12, 1, 23, 5, 19], [24, 25, 6, 4, 28, 2, 10, 9, 20, 8, 14, 27, 21, 22, 3, 12, 5, 23, 18, 16], [1, 23, 29, 18, 16, 19, 24, 17, 15, 6, 28, 10, 9, 27, 22, 30, 12], [12, 22, 1, 5, 18, 19, 29, 15, 6, 13, 4, 24, 2, 10, 9, 25, 14, 28, 27, 3], [21, 3, 27, 30, 16, 19, 17, 13, 4, 29, 10, 20, 14, 24], [15, 6, 13, 2, 20, 9, 8, 14, 30, 26, 12, 24, 5, 25, 7, 18, 16, 19], [18, 19, 17, 15, 6, 13, 4, 2, 20, 9, 25, 28, 21, 27, 23, 22], [16, 19, 28, 17, 15, 4, 13, 27, 11, 2, 24, 8, 21, 3, 26, 23, 1, 5], [2, 10, 27, 9, 14, 30, 3, 12, 23, 5, 25, 6, 4, 11], [26, 22, 29, 5, 25, 18, 16, 19, 17, 15, 28, 6, 13, 4, 11, 2, 10, 20, 24, 8, 14, 21, 3], [1, 25, 18, 16, 19, 17, 13, 11, 10, 27, 20, 9, 24, 14, 30, 21, 3, 12], [15, 6, 4, 11, 2, 27, 20, 8, 21, 30, 1, 22, 5, 16, 17], [3, 12, 23, 26, 1, 22, 5, 28, 29, 15, 6, 13, 4, 10, 20, 9, 8, 14]], 24)
round.(value.(model[:x])) = [0.0 0.0 0.0 1.0 0.0 0.0 0.0 0.0 0.0 0.0 0.0 0.0 0.0 0.0 0.0 0.0 0.0 0.0 0.0 0.0 0.0 0.0 0.0 0.0; 1.0 0.0 0.0 0.0 0.0 0.0 0.0 0.0 0.0 0.0 0.0 0.0 0.0 0.0 0.0 0.0 0.0 0.0 0.0 0.0 0.0 0.0 0.0 0.0; 0.0 0.0 0.0 1.0 0.0 0.0 0.0 0.0 0.0 0.0 0.0 0.0 0.0 0.0 0.0 0.0 0.0 0.0 0.0 0.0 0.0 0.0 0.0 0.0; 1.0 0.0 0.0 0.0 0.0 0.0 0.0 0.0 0.0 0.0 0.0 0.0 0.0 0.0 0.0 0.0 0.0 0.0 0.0 0.0 0.0 0.0 0.0 0.0; 0.0 0.0 0.0 1.0 0.0 0.0 0.0 0.0 0.0 0.0 0.0 0.0 0.0 0.0 0.0 0.0 0.0 0.0 0.0 0.0 0.0 0.0 0.0 0.0; 0.0 0.0 0.0 0.0 0.0 0.0 1.0 0.0 0.0 0.0 0.0 0.0 0.0 0.0 0.0 0.0 0.0 0.0 0.0 0.0 0.0 0.0 0.0 0.0; 0.0 0.0 0.0 1.0 0.0 0.0 0.0 0.0 0.0 0.0 0.0 0.0 0.0 0.0 0.0 0.0 0.0 0.0 0.0 0.0 0.0 0.0 0.0 0.0; 0.0 0.0 0.0 0.0 0.0 0.0 0.0 1.0 0.0 0.0 0.0 0.0 0.0 0.0 0.0 0.0 0.0 0.0 0.0 0.0 0.0 0.0 0.0 0.0; 0.0 1.0 0.0 0.0 0.0 0.0 0.0 0.0 0.0 0.0 0.0 0.0 0.0 0.0 0.0 0.0 0.0 0.0 0.0 0.0 0.0 0.0 0.0 0.0; 0.0 0.0 0.0 0.0 0.0 0.0 1.0 0.0 0.0 0.0 0.0 0.0 0.0 0.0 0.0 0.0 0.0 0.0 0.0 0.0 0.0 0.0 0.0 0.0; 1.0 0.0 0.0 0.0 0.0 0.0 0.0 0.0 0.0 0.0 0.0 0.0 0.0 0.0 0.0 0.0 0.0 0.0 0.0 0.0 0.0 0.0 0.0 0.0; 0.0 1.0 0.0 0.0 0.0 0.0 0.0 0.0 0.0 0.0 0.0 0.0 0.0 0.0 0.0 0.0 0.0 0.0 0.0 0.0 0.0 0.0 0.0 0.0; 1.0 0.0 0.0 0.0 0.0 0.0 0.0 0.0 0.0 0.0 0.0 0.0 0.0 0.0 0.0 0.0 0.0 0.0 0.0 0.0 0.0 0.0 0.0 0.0; 0.0 0.0 0.0 0.0 0.0 0.0 0.0 1.0 0.0 0.0 0.0 0.0 0.0 0.0 0.0 0.0 0.0 0.0 0.0 0.0 0.0 0.0 0.0 0.0; 0.0 0.0 0.0 0.0 0.0 1.0 0.0 0.0 0.0 0.0 0.0 0.0 0.0 0.0 0.0 0.0 0.0 0.0 0.0 0.0 0.0 0.0 0.0 0.0; 0.0 0.0 0.0 0.0 0.0 0.0 0.0 1.0 0.0 0.0 0.0 0.0 0.0 0.0 0.0 0.0 0.0 0.0 0.0 0.0 0.0 0.0 0.0 0.0; 0.0 0.0 1.0 0.0 0.0 0.0 0.0 0.0 0.0 0.0 0.0 0.0 0.0 0.0 0.0 0.0 0.0 0.0 0.0 0.0 0.0 0.0 0.0 0.0; 0.0 0.0 0.0 0.0 0.0 1.0 0.0 0.0 0.0 0.0 0.0 0.0 0.0 0.0 0.0 0.0 0.0 0.0 0.0 0.0 0.0 0.0 0.0 0.0; 0.0 0.0 0.0 0.0 1.0 0.0 0.0 0.0 0.0 0.0 0.0 0.0 0.0 0.0 0.0 0.0 0.0 0.0 0.0 0.0 0.0 0.0 0.0 0.0; 1.0 0.0 0.0 0.0 0.0 0.0 0.0 0.0 0.0 0.0 0.0 0.0 0.0 0.0 0.0 0.0 0.0 0.0 0.0 0.0 0.0 0.0 0.0 0.0; 0.0 0.0 1.0 0.0 0.0 0.0 0.0 0.0 0.0 0.0 0.0 0.0 0.0 0.0 0.0 0.0 0.0 0.0 0.0 0.0 0.0 0.0 0.0 0.0; 0.0 0.0 0.0 0.0 0.0 0.0 0.0 0.0 1.0 0.0 0.0 0.0 0.0 0.0 0.0 0.0 0.0 0.0 0.0 0.0 0.0 0.0 0.0 0.0; 0.0 0.0 0.0 0.0 0.0 0.0 0.0 0.0 1.0 0.0 0.0 0.0 0.0 0.0 0.0 0.0 0.0 0.0 0.0 0.0 0.0 0.0 0.0 0.0; 0.0 0.0 0.0 1.0 0.0 0.0 0.0 0.0 0.0 0.0 0.0 0.0 0.0 0.0 0.0 0.0 0.0 0.0 0.0 0.0 0.0 0.0 0.0 0.0; 0.0 0.0 0.0 0.0 0.0 0.0 1.0 0.0 0.0 0.0 0.0 0.0 0.0 0.0 0.0 0.0 0.0 0.0 0.0 0.0 0.0 0.0 0.0 0.0; 0.0 0.0 0.0 0.0 1.0 0.0 0.0 0.0 0.0 0.0 0.0 0.0 0.0 0.0 0.0 0.0 0.0 0.0 0.0 0.0 0.0 0.0 0.0 0.0; 0.0 1.0 0.0 0.0 0.0 0.0 0.0 0.0 0.0 0.0 0.0 0.0 0.0 0.0 0.0 0.0 0.0 0.0 0.0 0.0 0.0 0.0 0.0 0.0; 0.0 0.0 0.0 0.0 0.0 0.0 0.0 0.0 1.0 0.0 0.0 0.0 0.0 0.0 0.0 0.0 0.0 0.0 0.0 0.0 0.0 0.0 0.0 0.0; 0.0 0.0 0.0 0.0 1.0 0.0 0.0 0.0 0.0 0.0 0.0 0.0 0.0 0.0 0.0 0.0 0.0 0.0 0.0 0.0 0.0 0.0 0.0 0.0; 0.0 0.0 1.0 0.0 0.0 0.0 0.0 0.0 0.0 0.0 0.0 0.0 0.0 0.0 0.0 0.0 0.0 0.0 0.0 0.0 0.0 0.0 0.0 0.0]
round.(value.(model[:y])) = [1.0, 1.0, 1.0, 1.0, 1.0, 1.0, 1.0, 1.0, 1.0, 0.0, 0.0, 0.0, 0.0, 0.0, 0.0, 0.0, 0.0, 0.0, 0.0, 0.0, 0.0, 0.0, 0.0, 0.0]
(n, m, A) = (30, 261, [[28, 20, 10, 2, 21, 4, 6, 30, 15, 29, 12, 14, 16, 18, 25], [26, 17, 1, 23, 29, 12, 19, 16, 18, 8, 24, 25, 3, 27, 21, 5, 6], [13, 22, 6, 30, 15, 26, 2, 19, 14, 16, 18, 8, 25, 28, 9, 10, 27, 21, 11], [29, 19, 14, 16, 18, 24, 25, 1, 10, 27, 21, 22, 30, 26, 17], [27, 21, 11, 6, 30, 15, 2, 17, 26, 23, 29, 12, 19, 14, 18, 8, 25], [23, 29, 12, 19, 14, 16, 3, 18, 8, 24, 7, 9, 20, 1, 27, 5, 21, 13, 30, 15, 2, 26], [18, 9, 6, 10, 11, 13, 15, 17, 23, 12, 16], [15, 6, 23, 29, 12, 2, 19, 18, 25, 27, 3, 11, 13, 5, 30], [26, 7, 23, 19, 14, 16, 24, 6, 28, 20, 21, 13, 3, 30, 15], [17, 26, 1, 19, 14, 7, 18, 28, 4, 20, 27, 21, 13, 22, 30, 3], [17, 29, 16, 5, 25, 7, 28, 27, 8, 15, 3, 26], [21, 6, 2, 13, 8, 30, 15, 26, 17, 23, 19, 14, 16, 18, 1, 5, 28, 7, 20], [23, 3, 14, 16, 12, 18, 24, 25, 28, 7, 27, 21, 6, 22, 10, 9, 30, 8, 15, 17], [15, 26, 17, 6, 4, 13, 10, 23, 9, 19, 18, 28, 3, 27, 12, 21, 1, 22, 5, 30], [8, 14, 23, 29, 16, 24, 25, 3, 20, 12, 27, 21, 1, 5, 7, 30, 6, 13, 11, 17, 9], [25, 15, 6, 28, 13, 4, 11, 2, 20, 9, 27, 22, 3, 12, 17, 1, 23, 29, 19, 7], [11, 2, 10, 24, 14, 25, 28, 20, 27, 12, 22, 5, 7, 16, 15, 13, 4, 29], [7, 24, 28, 6, 4, 13, 20, 2, 10, 27, 21, 8, 14, 3, 12, 1, 23, 5, 19], [24, 25, 6, 4, 28, 2, 10, 9, 20, 8, 14, 27, 21, 22, 3, 12, 5, 23, 18, 16], [1, 23, 29, 18, 16, 19, 24, 17, 15, 6, 28, 10, 9, 27, 22, 30, 12], [12, 22, 1, 5, 18, 19, 29, 15, 6, 13, 4, 24, 2, 10, 9, 25, 14, 28, 27, 3], [21, 3, 27, 30, 16, 19, 17, 13, 4, 29, 10, 20, 14, 24], [15, 6, 13, 2, 20, 9, 8, 14, 30, 26, 12, 24, 5, 25, 7, 18, 16, 19], [18, 19, 17, 15, 6, 13, 4, 2, 20, 9, 25, 28, 21, 27, 23, 22], [16, 19, 28, 17, 15, 4, 13, 27, 11, 2, 24, 8, 21, 3, 26, 23, 1, 5], [2, 10, 27, 9, 14, 30, 3, 12, 23, 5, 25, 6, 4, 11], [26, 22, 29, 5, 25, 18, 16, 19, 17, 15, 28, 6, 13, 4, 11, 2, 10, 20, 24, 8, 14, 21, 3], [1, 25, 18, 16, 19, 17, 13, 11, 10, 27, 20, 9, 24, 14, 30, 21, 3, 12], [15, 6, 4, 11, 2, 27, 20, 8, 21, 30, 1, 22, 5, 16, 17], [3, 12, 23, 26, 1, 22, 5, 28, 29, 15, 6, 13, 4, 10, 20, 9, 8, 14]])
 1 (4), 2 (1), 3 (4), 4 (1), 5 (4), 6 (7), 7 (4), 8 (8), 9 (2), 10 (7), 11 (1), 12 (2), 13 (1), 14 (8), 15 (6), 16 (8), 17 (3), 18 (6), 19 (5), 20 (1), 21 (3), 22 (9), 23 (9), 24 (4), 25 (7), 26 (5), 27 (2), 28 (9), 29 (5), 30 (3),
objective_bound(model) = 9.0
objective_value(model) = 9.0
